c A SAT instance generated from a 3-CNF formula that had 14 clauses and 7 variables
p cnf 7 14
1 2 -6 0
2 7 -1 0
-7 5 3 0
-4 5 6 0
1 -7 3 0
6 5 3 0
-5 -4 -6 0
-7 4 -3 0
2 -1 7 0
-4 6 7 0
-4 -2 1 0
1 -5 -4 0
5 1 -2 0
6 7 -1 0
